WARNING: for repeatability, setting FPU to use double precision
============================[ Problem Statistics ]=============================
|                                                                             |
|  Number of variables:        520721                                         |
|  Number of clauses:        13348116                                         |
|  Parse time:                   2.66 s                                       |
|                                                                             |
============================[ Search Statistics ]==============================
| Conflicts |          ORIGINAL         |          LEARNT          | Progress |
|           |    Vars  Clauses Literals |    Limit  Clauses Lit/Cl |          |
===============================================================================
|       100 |  520715 13348080 39114248 |  4894296      100     23 |  0.001 % |
|       250 |  520715 13348080 39114248 |  5383725      250     62 |  0.001 % |
|       475 |  520715 13348080 39114248 |  5922098      475     87 |  0.001 % |
|       812 |  520715 13348080 39114248 |  6514307      812     74 |  0.001 % |
|      1318 |  520715 13348080 39114248 |  7165738     1318     61 |  0.001 % |
|      2077 |  520715 13348080 39114248 |  7882312     2077     70 |  0.001 % |
|      3216 |  520715 13348080 39114248 |  8670543     3216     72 |  0.001 % |
|      4924 |  520715 13348080 39114248 |  9537598     4924     62 |  0.001 % |
|      7486 |  520715 13348080 39114248 | 10491358     7486     58 |  0.001 % |
|     11330 |  520715 13348080 39114248 | 11540493    11330     53 |  0.001 % |
|     17096 |  520715 13348080 39114248 | 12694543    17096     62 |  0.001 % |
===============================================================================
restarts              : 77
conflicts             : 21614          (952 /sec)
decisions             : 2479762        (0.00 % random) (109193 /sec)
propagations          : 160050170      (7047564 /sec)
conflict literals     : 1445714        (13.58 % deleted)
Memory used           : 635.00 MB
CPU time              : 22.71 s

SATISFIABLE
